# schedule-user.dat
# ================
# This file contains user specific data.  To use our scheduler, edit this file,
# and then run the provided AMPL model.

param semesters_left := {{ semesters_left }};

param min_credits := {{ minimum_credits }};
param max_credits := {{ maximum_credits }};
param already_taken :=
{% for course in courses %}
   {{ course.code }}
   {% if course in taken %} 1 {% else %} 0 {% endif %}
{% endfor %};